\ENCODING=ISO-8859-1
\Problem name: instances

Maximize
 obj:
Subject To
 c1: 34 x1 + 14 x2 + 87 x3 + 8 x4 + 13 x5 - 21 x6 + 54 x7 + 93 x8 + 99 x10
     <= 125
 c2: 19 x1 + 66 x2 + 61 x3 + 6 x4 + 71 x5 - 44 x6 - 59 x7 + 27 x8 + 8 x9
     + 82 x10 <= 128
 c3: 61 x1 + 92 x2 + 10 x4 + 36 x5 + 54 x7 + 60 x8 - 51 x9 + 12 x10 <= 125
 c4: 80 x1 + 6 x2 + 42 x3 + 91 x4 + 68 x5 + 70 x6 - 68 x7 + 52 x9 + 8 x10
     <= 144
 c5: 26 x1 + 39 x2 - 56 x4 + 35 x5 + 80 x6 + 77 x7 + 43 x8 + 92 x9 + 30 x10
     <= 207
Bounds
      x1 >= 0
      x2 >= 0
      x3 >= 0
      x4 >= 0
      x5 >= 0
      x6 >= 0
      x7 >= 0
      x8 >= 0
      x9 >= 0
      x10 >= 0
Generals
 x1  x2  x3  x4  x5  x6  x7  x8  x9  x10 
End
